(set-option :produce-models true)
(set-option :produce-unsat-cores true)
(set-option :produce-interpolants true)
(set-option :interpolant-check-mode true)
(set-option :proof-transformation LU)
(set-logic ALL)
(set-info :source |SMT script generated on 2024-03-30T23:51:57+01:00 by Ultimate (https://ultimate.informatik.uni-freiburg.de/)|)
(set-info :smt-lib-version 2.5)
(set-info :category "industrial")
(set-info :ultimate-id partial_lesser_bound.i_AllErrorsAtOnce_Iteration2)
(define-fun ~initToZeroAtPointerBaseAddress~$Pointer$.base ((in0.base (Array Int (Array Int Int))) (in0.offset (Array Int (Array Int Int))) (in1 Int)) (Array Int (Array Int Int)) (store in0.base in1 ((as const (Array Int Int)) 0)))
(define-fun ~initToZeroAtPointerBaseAddress~$Pointer$.offset ((in0.base (Array Int (Array Int Int))) (in0.offset (Array Int (Array Int Int))) (in1 Int)) (Array Int (Array Int Int)) (store in0.offset in1 ((as const (Array Int Int)) 0)))
(declare-fun |c_old(~#a~0.base)| () Int)
(declare-fun |c_old(~#a~0.base)_primed| () Int)
(declare-fun |c_~#a~0.base| () Int)
(declare-fun |c_~#a~0.base_primed| () Int)
(declare-fun |c_old(~#a~0.offset)| () Int)
(declare-fun |c_old(~#a~0.offset)_primed| () Int)
(declare-fun |c_~#a~0.offset| () Int)
(declare-fun |c_~#a~0.offset_primed| () Int)
(declare-fun |c_old(~i~0)| () Int)
(declare-fun |c_old(~i~0)_primed| () Int)
(declare-fun c_~i~0 () Int)
(declare-fun c_~i~0_primed () Int)
(declare-fun |c_old(#valid)| () (Array Int Int))
(declare-fun |c_old(#valid)_primed| () (Array Int Int))
(declare-fun |c_#valid| () (Array Int Int))
(declare-fun |c_#valid_primed| () (Array Int Int))
(declare-fun |c_old(#length)| () (Array Int Int))
(declare-fun |c_old(#length)_primed| () (Array Int Int))
(declare-fun |c_#length| () (Array Int Int))
(declare-fun |c_#length_primed| () (Array Int Int))
(declare-fun |c_old(#memory_int#0)| () (Array Int (Array Int Int)))
(declare-fun |c_old(#memory_int#0)_primed| () (Array Int (Array Int Int)))
(declare-fun |c_#memory_int#0| () (Array Int (Array Int Int)))
(declare-fun |c_#memory_int#0_primed| () (Array Int (Array Int Int)))
(declare-fun |c_old(#memory_int#1)| () (Array Int (Array Int Int)))
(declare-fun |c_old(#memory_int#1)_primed| () (Array Int (Array Int Int)))
(declare-fun |c_#memory_int#1| () (Array Int (Array Int Int)))
(declare-fun |c_#memory_int#1_primed| () (Array Int (Array Int Int)))
(declare-fun |c_old(#memory_$Pointer$#0.base)| () (Array Int (Array Int Int)))
(declare-fun |c_old(#memory_$Pointer$#0.base)_primed| () (Array Int (Array Int Int)))
(declare-fun |c_#memory_$Pointer$#0.base| () (Array Int (Array Int Int)))
(declare-fun |c_#memory_$Pointer$#0.base_primed| () (Array Int (Array Int Int)))
(declare-fun |c_old(#memory_$Pointer$#0.offset)| () (Array Int (Array Int Int)))
(declare-fun |c_old(#memory_$Pointer$#0.offset)_primed| () (Array Int (Array Int Int)))
(declare-fun |c_#memory_$Pointer$#0.offset| () (Array Int (Array Int Int)))
(declare-fun |c_#memory_$Pointer$#0.offset_primed| () (Array Int (Array Int Int)))
(declare-fun |c_old(#memory_$Pointer$#1.base)| () (Array Int (Array Int Int)))
(declare-fun |c_old(#memory_$Pointer$#1.base)_primed| () (Array Int (Array Int Int)))
(declare-fun |c_#memory_$Pointer$#1.base| () (Array Int (Array Int Int)))
(declare-fun |c_#memory_$Pointer$#1.base_primed| () (Array Int (Array Int Int)))
(declare-fun |c_old(#memory_$Pointer$#1.offset)| () (Array Int (Array Int Int)))
(declare-fun |c_old(#memory_$Pointer$#1.offset)_primed| () (Array Int (Array Int Int)))
(declare-fun |c_#memory_$Pointer$#1.offset| () (Array Int (Array Int Int)))
(declare-fun |c_#memory_$Pointer$#1.offset_primed| () (Array Int (Array Int Int)))
(declare-fun |c_old(#StackHeapBarrier)| () Int)
(declare-fun |c_old(#StackHeapBarrier)_primed| () Int)
(declare-fun |c_#StackHeapBarrier| () Int)
(declare-fun |c_#StackHeapBarrier_primed| () Int)
(declare-fun |c_reach_error_#t~nondet0.base| () Int)
(declare-fun |c_reach_error_#t~nondet0.base_primed| () Int)
(declare-fun |c_reach_error_#t~nondet0.offset| () Int)
(declare-fun |c_reach_error_#t~nondet0.offset_primed| () Int)
(declare-fun |c_#Ultimate.allocInit_~size| () Int)
(declare-fun |c_#Ultimate.allocInit_~size_primed| () Int)
(declare-fun |c_#Ultimate.allocInit_ptrBase| () Int)
(declare-fun |c_#Ultimate.allocInit_ptrBase_primed| () Int)
(declare-fun |c_malloc_#in~size| () Int)
(declare-fun |c_malloc_#in~size_primed| () Int)
(declare-fun |c_malloc_#res.base| () Int)
(declare-fun |c_malloc_#res.base_primed| () Int)
(declare-fun |c_malloc_#res.offset| () Int)
(declare-fun |c_malloc_#res.offset_primed| () Int)
(declare-fun |c_read~$Pointer$#0_#ptr.base| () Int)
(declare-fun |c_read~$Pointer$#0_#ptr.base_primed| () Int)
(declare-fun |c_read~$Pointer$#0_#ptr.offset| () Int)
(declare-fun |c_read~$Pointer$#0_#ptr.offset_primed| () Int)
(declare-fun |c_read~$Pointer$#0_#sizeOfReadType| () Int)
(declare-fun |c_read~$Pointer$#0_#sizeOfReadType_primed| () Int)
(declare-fun |c_read~$Pointer$#0_#value.base| () Int)
(declare-fun |c_read~$Pointer$#0_#value.base_primed| () Int)
(declare-fun |c_read~$Pointer$#0_#value.offset| () Int)
(declare-fun |c_read~$Pointer$#0_#value.offset_primed| () Int)
(declare-fun |c_read~$Pointer$#1_#ptr.base| () Int)
(declare-fun |c_read~$Pointer$#1_#ptr.base_primed| () Int)
(declare-fun |c_read~$Pointer$#1_#ptr.offset| () Int)
(declare-fun |c_read~$Pointer$#1_#ptr.offset_primed| () Int)
(declare-fun |c_read~$Pointer$#1_#sizeOfReadType| () Int)
(declare-fun |c_read~$Pointer$#1_#sizeOfReadType_primed| () Int)
(declare-fun |c_read~$Pointer$#1_#value.base| () Int)
(declare-fun |c_read~$Pointer$#1_#value.base_primed| () Int)
(declare-fun |c_read~$Pointer$#1_#value.offset| () Int)
(declare-fun |c_read~$Pointer$#1_#value.offset_primed| () Int)
(declare-fun |c_read~int#1_#ptr.base| () Int)
(declare-fun |c_read~int#1_#ptr.base_primed| () Int)
(declare-fun |c_read~int#1_#ptr.offset| () Int)
(declare-fun |c_read~int#1_#ptr.offset_primed| () Int)
(declare-fun |c_read~int#1_#sizeOfReadType| () Int)
(declare-fun |c_read~int#1_#sizeOfReadType_primed| () Int)
(declare-fun |c_read~int#1_#value| () Int)
(declare-fun |c_read~int#1_#value_primed| () Int)
(declare-fun |c_read~int#0_#ptr.base| () Int)
(declare-fun |c_read~int#0_#ptr.base_primed| () Int)
(declare-fun |c_read~int#0_#ptr.offset| () Int)
(declare-fun |c_read~int#0_#ptr.offset_primed| () Int)
(declare-fun |c_read~int#0_#sizeOfReadType| () Int)
(declare-fun |c_read~int#0_#sizeOfReadType_primed| () Int)
(declare-fun |c_read~int#0_#value| () Int)
(declare-fun |c_read~int#0_#value_primed| () Int)
(declare-fun |c_write~$Pointer$#0_#value.base| () Int)
(declare-fun |c_write~$Pointer$#0_#value.base_primed| () Int)
(declare-fun |c_write~$Pointer$#0_#value.offset| () Int)
(declare-fun |c_write~$Pointer$#0_#value.offset_primed| () Int)
(declare-fun |c_write~$Pointer$#0_#ptr.base| () Int)
(declare-fun |c_write~$Pointer$#0_#ptr.base_primed| () Int)
(declare-fun |c_write~$Pointer$#0_#ptr.offset| () Int)
(declare-fun |c_write~$Pointer$#0_#ptr.offset_primed| () Int)
(declare-fun |c_write~$Pointer$#0_#sizeOfWrittenType| () Int)
(declare-fun |c_write~$Pointer$#0_#sizeOfWrittenType_primed| () Int)
(declare-fun |c_main_#res| () Int)
(declare-fun |c_main_#res_primed| () Int)
(declare-fun |c_main_#t~post1| () Int)
(declare-fun |c_main_#t~post1_primed| () Int)
(declare-fun |c_main_#t~malloc2.base| () Int)
(declare-fun |c_main_#t~malloc2.base_primed| () Int)
(declare-fun |c_main_#t~malloc2.offset| () Int)
(declare-fun |c_main_#t~malloc2.offset_primed| () Int)
(declare-fun |c_main_#t~post3| () Int)
(declare-fun |c_main_#t~post3_primed| () Int)
(declare-fun |c_main_#t~mem4.base| () Int)
(declare-fun |c_main_#t~mem4.base_primed| () Int)
(declare-fun |c_main_#t~mem4.offset| () Int)
(declare-fun |c_main_#t~mem4.offset_primed| () Int)
(declare-fun |c_main_#t~post5| () Int)
(declare-fun |c_main_#t~post5_primed| () Int)
(declare-fun |c_write~$Pointer$#1_#value.base| () Int)
(declare-fun |c_write~$Pointer$#1_#value.base_primed| () Int)
(declare-fun |c_write~$Pointer$#1_#value.offset| () Int)
(declare-fun |c_write~$Pointer$#1_#value.offset_primed| () Int)
(declare-fun |c_write~$Pointer$#1_#ptr.base| () Int)
(declare-fun |c_write~$Pointer$#1_#ptr.base_primed| () Int)
(declare-fun |c_write~$Pointer$#1_#ptr.offset| () Int)
(declare-fun |c_write~$Pointer$#1_#ptr.offset_primed| () Int)
(declare-fun |c_write~$Pointer$#1_#sizeOfWrittenType| () Int)
(declare-fun |c_write~$Pointer$#1_#sizeOfWrittenType_primed| () Int)
(declare-fun |c_write~int#0_#value| () Int)
(declare-fun |c_write~int#0_#value_primed| () Int)
(declare-fun |c_write~int#0_#ptr.base| () Int)
(declare-fun |c_write~int#0_#ptr.base_primed| () Int)
(declare-fun |c_write~int#0_#ptr.offset| () Int)
(declare-fun |c_write~int#0_#ptr.offset_primed| () Int)
(declare-fun |c_write~int#0_#sizeOfWrittenType| () Int)
(declare-fun |c_write~int#0_#sizeOfWrittenType_primed| () Int)
(declare-fun |c_write~int#1_#value| () Int)
(declare-fun |c_write~int#1_#value_primed| () Int)
(declare-fun |c_write~int#1_#ptr.base| () Int)
(declare-fun |c_write~int#1_#ptr.base_primed| () Int)
(declare-fun |c_write~int#1_#ptr.offset| () Int)
(declare-fun |c_write~int#1_#ptr.offset_primed| () Int)
(declare-fun |c_write~int#1_#sizeOfWrittenType| () Int)
(declare-fun |c_write~int#1_#sizeOfWrittenType_primed| () Int)
(declare-fun |c_#Ultimate.allocOnHeap_~size| () Int)
(declare-fun |c_#Ultimate.allocOnHeap_~size_primed| () Int)
(declare-fun |c_#Ultimate.allocOnHeap_#res.base| () Int)
(declare-fun |c_#Ultimate.allocOnHeap_#res.base_primed| () Int)
(declare-fun |c_#Ultimate.allocOnHeap_#res.offset| () Int)
(declare-fun |c_#Ultimate.allocOnHeap_#res.offset_primed| () Int)
(declare-fun |c___assert_#in~__assertion.base| () Int)
(declare-fun |c___assert_#in~__assertion.base_primed| () Int)
(declare-fun |c___assert_#in~__assertion.offset| () Int)
(declare-fun |c___assert_#in~__assertion.offset_primed| () Int)
(declare-fun |c___assert_#in~__file.base| () Int)
(declare-fun |c___assert_#in~__file.base_primed| () Int)
(declare-fun |c___assert_#in~__file.offset| () Int)
(declare-fun |c___assert_#in~__file.offset_primed| () Int)
(declare-fun |c___assert_#in~__line| () Int)
(declare-fun |c___assert_#in~__line_primed| () Int)
(declare-fun |c_ULTIMATE.start_#t~ret6| () Int)
(declare-fun |c_ULTIMATE.start_#t~ret6_primed| () Int)
(declare-fun |c___VERIFIER_assert_#in~cond| () Int)
(declare-fun |c___VERIFIER_assert_#in~cond_primed| () Int)
(declare-fun c___VERIFIER_assert_~cond () Int)
(declare-fun c___VERIFIER_assert_~cond_primed () Int)
(declare-fun |c_write~init~int#1_#value| () Int)
(declare-fun |c_write~init~int#1_#value_primed| () Int)
(declare-fun |c_write~init~int#1_#ptr.base| () Int)
(declare-fun |c_write~init~int#1_#ptr.base_primed| () Int)
(declare-fun |c_write~init~int#1_#ptr.offset| () Int)
(declare-fun |c_write~init~int#1_#ptr.offset_primed| () Int)
(declare-fun |c_write~init~int#1_#sizeOfWrittenType| () Int)
(declare-fun |c_write~init~int#1_#sizeOfWrittenType_primed| () Int)
(declare-fun |c___assert_fail_#in~__assertion.base| () Int)
(declare-fun |c___assert_fail_#in~__assertion.base_primed| () Int)
(declare-fun |c___assert_fail_#in~__assertion.offset| () Int)
(declare-fun |c___assert_fail_#in~__assertion.offset_primed| () Int)
(declare-fun |c___assert_fail_#in~__file.base| () Int)
(declare-fun |c___assert_fail_#in~__file.base_primed| () Int)
(declare-fun |c___assert_fail_#in~__file.offset| () Int)
(declare-fun |c___assert_fail_#in~__file.offset_primed| () Int)
(declare-fun |c___assert_fail_#in~__line| () Int)
(declare-fun |c___assert_fail_#in~__line_primed| () Int)
(declare-fun |c___assert_fail_#in~__function.base| () Int)
(declare-fun |c___assert_fail_#in~__function.base_primed| () Int)
(declare-fun |c___assert_fail_#in~__function.offset| () Int)
(declare-fun |c___assert_fail_#in~__function.offset_primed| () Int)
(declare-fun |c___assert_perror_fail_#in~__errnum| () Int)
(declare-fun |c___assert_perror_fail_#in~__errnum_primed| () Int)
(declare-fun |c___assert_perror_fail_#in~__file.base| () Int)
(declare-fun |c___assert_perror_fail_#in~__file.base_primed| () Int)
(declare-fun |c___assert_perror_fail_#in~__file.offset| () Int)
(declare-fun |c___assert_perror_fail_#in~__file.offset_primed| () Int)
(declare-fun |c___assert_perror_fail_#in~__line| () Int)
(declare-fun |c___assert_perror_fail_#in~__line_primed| () Int)
(declare-fun |c___assert_perror_fail_#in~__function.base| () Int)
(declare-fun |c___assert_perror_fail_#in~__function.base_primed| () Int)
(declare-fun |c___assert_perror_fail_#in~__function.offset| () Int)
(declare-fun |c___assert_perror_fail_#in~__function.offset_primed| () Int)
(declare-fun |c_write~init~int#0_#value| () Int)
(declare-fun |c_write~init~int#0_#value_primed| () Int)
(declare-fun |c_write~init~int#0_#ptr.base| () Int)
(declare-fun |c_write~init~int#0_#ptr.base_primed| () Int)
(declare-fun |c_write~init~int#0_#ptr.offset| () Int)
(declare-fun |c_write~init~int#0_#ptr.offset_primed| () Int)
(declare-fun |c_write~init~int#0_#sizeOfWrittenType| () Int)
(declare-fun |c_write~init~int#0_#sizeOfWrittenType_primed| () Int)
(declare-fun c_ULTIMATE.dealloc_~addr.base () Int)
(declare-fun c_ULTIMATE.dealloc_~addr.base_primed () Int)
(declare-fun c_ULTIMATE.dealloc_~addr.offset () Int)
(declare-fun c_ULTIMATE.dealloc_~addr.offset_primed () Int)
(declare-fun |c_aux_v_main_#t~malloc2.base_3| () Int)
(declare-fun |c_aux_v_ULTIMATE.start_#t~ret6_3| () Int)
(declare-fun |c_aux_v_main_#t~malloc2.base_5| () Int)
(declare-fun |c_aux_v_main_#t~malloc2.base_7| () Int)
(declare-fun c_aux_v_ArrVal_2 () (Array Int Int))
(declare-fun c_aux_v_ArrVal_1 () (Array Int Int))
(declare-fun c_aux_v_ArrVal_3 () (Array Int Int))
(declare-fun c_aux_v_ArrVal_4 () (Array Int Int))
(echo "starting trace check")
(push 1)
(declare-fun |#memory_int#0_-1| () (Array Int (Array Int Int)))
(declare-fun |#memory_$Pointer$#0.offset_-1| () (Array Int (Array Int Int)))
(declare-fun ~i~0_-1 () Int)
(declare-fun |#memory_$Pointer$#0.base_-1| () (Array Int (Array Int Int)))
(declare-fun |#valid_-1| () (Array Int Int))
(declare-fun |~#a~0.base_-1| () Int)
(declare-fun |#length_-1| () (Array Int Int))
(declare-fun |~#a~0.offset_-1| () Int)
(declare-fun |#memory_$Pointer$#1.offset_-1| () (Array Int (Array Int Int)))
(declare-fun |#memory_int#1_-1| () (Array Int (Array Int Int)))
(declare-fun |#memory_$Pointer$#1.base_-1| () (Array Int (Array Int Int)))
(declare-fun |old(#memory_int#0)_-1| () (Array Int (Array Int Int)))
(declare-fun |old(#memory_$Pointer$#0.offset)_-1| () (Array Int (Array Int Int)))
(declare-fun |old(~i~0)_-1| () Int)
(declare-fun |old(#memory_$Pointer$#0.base)_-1| () (Array Int (Array Int Int)))
(declare-fun |old(#valid)_-1| () (Array Int Int))
(declare-fun |old(~#a~0.base)_-1| () Int)
(declare-fun |old(#length)_-1| () (Array Int Int))
(declare-fun |old(~#a~0.offset)_-1| () Int)
(declare-fun |old(#memory_$Pointer$#1.offset)_-1| () (Array Int (Array Int Int)))
(declare-fun |old(#memory_int#1)_-1| () (Array Int (Array Int Int)))
(declare-fun |old(#memory_$Pointer$#1.base)_-1| () (Array Int (Array Int Int)))
(declare-fun |old(#memory_$Pointer$#0.offset)_0| () (Array Int (Array Int Int)))
(declare-fun |old(~i~0)_0| () Int)
(declare-fun |old(#memory_$Pointer$#0.base)_0| () (Array Int (Array Int Int)))
(declare-fun |old(~#a~0.base)_0| () Int)
(declare-fun |old(~#a~0.offset)_0| () Int)
(declare-fun |old(#memory_$Pointer$#1.offset)_0| () (Array Int (Array Int Int)))
(declare-fun |old(#memory_$Pointer$#1.base)_0| () (Array Int (Array Int Int)))
(declare-fun |#memory_$Pointer$#0.offset_0| () (Array Int (Array Int Int)))
(declare-fun ~i~0_0 () Int)
(declare-fun |#memory_$Pointer$#0.base_0| () (Array Int (Array Int Int)))
(declare-fun |~#a~0.base_0| () Int)
(declare-fun |~#a~0.offset_0| () Int)
(declare-fun |#memory_$Pointer$#1.offset_0| () (Array Int (Array Int Int)))
(declare-fun |#memory_$Pointer$#1.base_0| () (Array Int (Array Int Int)))
(declare-fun |#StackHeapBarrier_-1| () Int)
(declare-fun ~i~0_1 () Int)
(declare-fun |~#a~0.base_1| () Int)
(declare-fun |~#a~0.offset_1| () Int)
(declare-fun |#memory_$Pointer$#1.offset_1| () (Array Int (Array Int Int)))
(declare-fun |#memory_$Pointer$#1.base_1| () (Array Int (Array Int Int)))
(declare-fun v_ArrVal_6_fresh_1 () (Array Int Int))
(declare-fun v_ArrVal_5_fresh_1 () (Array Int Int))
(declare-fun |old(~i~0)_3| () Int)
(declare-fun |old(#valid)_3| () (Array Int Int))
(declare-fun |old(#length)_3| () (Array Int Int))
(declare-fun |old(#memory_$Pointer$#1.offset)_3| () (Array Int (Array Int Int)))
(declare-fun |old(#memory_int#1)_3| () (Array Int (Array Int Int)))
(declare-fun |old(#memory_$Pointer$#1.base)_3| () (Array Int (Array Int Int)))
(declare-fun ~i~0_3 () Int)
(declare-fun |#valid_3| () (Array Int Int))
(declare-fun |#length_3| () (Array Int Int))
(declare-fun |#memory_$Pointer$#1.offset_3| () (Array Int (Array Int Int)))
(declare-fun |#memory_int#1_3| () (Array Int (Array Int Int)))
(declare-fun |#memory_$Pointer$#1.base_3| () (Array Int (Array Int Int)))
(declare-fun ~i~0_4 () Int)
(declare-fun ~i~0_6 () Int)
(declare-fun ~i~0_8 () Int)
(declare-fun |main_#t~mem4.base_9| () Int)
(declare-fun |main_#t~mem4.offset_9| () Int)
(declare-fun |__VERIFIER_assert_#in~cond_10| () Int)
(declare-fun |main_#t~mem4.base_10| () Int)
(declare-fun |main_#t~mem4.offset_10| () Int)
(declare-fun __VERIFIER_assert_~cond_11 () Int)
(declare-fun __VERIFIER_assert_~cond_12 () Int)
(assert (! true :named ssa_precond))
(assert (! (not false) :named ssa_postcond))
(assert (! (and (= |~#a~0.base_0| |old(~#a~0.base)_0|) (= |old(#memory_$Pointer$#0.offset)_0| |#memory_$Pointer$#0.offset_0|) (= |#memory_$Pointer$#0.base_0| |old(#memory_$Pointer$#0.base)_0|) (= ~i~0_0 |old(~i~0)_0|) (= |old(~#a~0.offset)_0| |~#a~0.offset_0|) (= |old(#memory_$Pointer$#1.offset)_0| |#memory_$Pointer$#1.offset_0|) (= |#memory_$Pointer$#1.base_0| |old(#memory_$Pointer$#1.base)_0|)) :named ssa_0_GlobVarAssigCall))
(assert (! true :named ssa_0_LocVarAssigCall))
(assert (! (and (= |old(#memory_$Pointer$#1.base)_0| |#memory_$Pointer$#1.base_-1|) (= |old(~#a~0.base)_0| |~#a~0.base_-1|) (= |#memory_$Pointer$#0.offset_-1| |old(#memory_$Pointer$#0.offset)_0|) (= ~i~0_-1 |old(~i~0)_0|) (= |old(#memory_$Pointer$#1.offset)_0| |#memory_$Pointer$#1.offset_-1|) (= |old(#memory_$Pointer$#0.base)_0| |#memory_$Pointer$#0.base_-1|) (= |~#a~0.offset_-1| |old(~#a~0.offset)_0|)) :named ssa_0_OldVarAssigCall))
(assert (! (and (< 0 |#StackHeapBarrier_-1|) (= (select |#valid_-1| 0) 0) (= |#memory_$Pointer$#1.offset_1| (store |#memory_$Pointer$#1.offset_0| |~#a~0.base_1| v_ArrVal_5_fresh_1)) (= (select |#valid_-1| 2) 1) (= |~#a~0.offset_1| 0) (= ((as const (Array Int Int)) 0) v_ArrVal_6_fresh_1) (= 23 (select |#length_-1| 2)) (= 4000000 (select |#length_-1| 3)) (= (select |#valid_-1| 3) 1) (= |~#a~0.base_1| 3) (= (select |#valid_-1| 1) 1) (= ~i~0_1 0) (= (select (select |#memory_int#0_-1| 1) 1) 0) (= 2 (select |#length_-1| 1)) (= (select (select |#memory_int#0_-1| 1) 0) 48) (= ((as const (Array Int Int)) 0) v_ArrVal_5_fresh_1) (= (store |#memory_$Pointer$#1.base_0| |~#a~0.base_1| v_ArrVal_6_fresh_1) |#memory_$Pointer$#1.base_1|)) :named ssa_1))
(assert (! true :named ssa_2_return))
(assert (! (and (= |old(#valid)_3| |#valid_3|) (= ~i~0_3 |old(~i~0)_3|) (= |old(#memory_$Pointer$#1.offset)_3| |#memory_$Pointer$#1.offset_3|) (= |#memory_$Pointer$#1.base_3| |old(#memory_$Pointer$#1.base)_3|) (= |#length_3| |old(#length)_3|) (= |old(#memory_int#1)_3| |#memory_int#1_3|)) :named ssa_3_GlobVarAssigCall))
(assert (! true :named ssa_3_LocVarAssigCall))
(assert (! (and (= |old(#memory_$Pointer$#1.base)_3| |#memory_$Pointer$#1.base_1|) (= ~i~0_1 |old(~i~0)_3|) (= |old(#length)_3| |#length_-1|) (= |old(#memory_$Pointer$#1.offset)_3| |#memory_$Pointer$#1.offset_1|) (= |#valid_-1| |old(#valid)_3|) (= |old(#memory_int#1)_3| |#memory_int#1_-1|)) :named ssa_3_OldVarAssigCall))
(assert (! (= ~i~0_4 0) :named ssa_4))
(assert (! (<= 1000000 ~i~0_4) :named ssa_5))
(assert (! (= ~i~0_6 0) :named ssa_6))
(assert (! (<= 500000 ~i~0_6) :named ssa_7))
(assert (! (= ~i~0_8 0) :named ssa_8))
(assert (! (and (< ~i~0_8 500000) (= |main_#t~mem4.offset_9| (select (select |#memory_$Pointer$#1.offset_3| |~#a~0.base_1|) (+ |~#a~0.offset_1| (* 4 ~i~0_8)))) (= |main_#t~mem4.base_9| (select (select |#memory_$Pointer$#1.base_3| |~#a~0.base_1|) (+ |~#a~0.offset_1| (* 4 ~i~0_8))))) :named ssa_9))
(assert (! true :named ssa_10_GlobVarAssigCall))
(assert (! (= |__VERIFIER_assert_#in~cond_10| (ite (or (not (= |main_#t~mem4.offset_9| 0)) (not (= |main_#t~mem4.base_9| 0))) 1 0)) :named ssa_10_LocVarAssigCall))
(assert (! true :named ssa_10_OldVarAssigCall))
(assert (! (= __VERIFIER_assert_~cond_11 |__VERIFIER_assert_#in~cond_10|) :named ssa_11))
(assert (! (= __VERIFIER_assert_~cond_11 0) :named ssa_12))
(assert (! true :named ssa_13))
(check-sat)
(get-interpolants (and ssa_0_LocVarAssigCall ssa_precond ssa_0_GlobVarAssigCall ssa_0_OldVarAssigCall ssa_2_return ssa_1) (and ssa_3_OldVarAssigCall ssa_3_LocVarAssigCall ssa_3_GlobVarAssigCall) ssa_4 ssa_5 ssa_6 ssa_7 ssa_8 ssa_9 (and ssa_10_GlobVarAssigCall ssa_10_OldVarAssigCall ssa_10_LocVarAssigCall) ssa_11 ssa_12 (and ssa_13 ssa_postcond))
(echo "finished trace check")
(pop 1)
(echo "starting trace check")
(push 1)
(declare-fun |#memory_int#0_-2| () (Array Int (Array Int Int)))
(declare-fun |#memory_$Pointer$#0.offset_-2| () (Array Int (Array Int Int)))
(declare-fun ~i~0_-2 () Int)
(declare-fun |#memory_$Pointer$#0.base_-2| () (Array Int (Array Int Int)))
(declare-fun |#valid_-2| () (Array Int Int))
(declare-fun |~#a~0.base_-2| () Int)
(declare-fun |#length_-2| () (Array Int Int))
(declare-fun |~#a~0.offset_-2| () Int)
(declare-fun |#memory_$Pointer$#1.offset_-2| () (Array Int (Array Int Int)))
(declare-fun |#memory_int#1_-2| () (Array Int (Array Int Int)))
(declare-fun |#memory_$Pointer$#1.base_-2| () (Array Int (Array Int Int)))
(declare-fun |old(#memory_int#0)_-2| () (Array Int (Array Int Int)))
(declare-fun |old(#memory_$Pointer$#0.offset)_-2| () (Array Int (Array Int Int)))
(declare-fun |old(~i~0)_-2| () Int)
(declare-fun |old(#memory_$Pointer$#0.base)_-2| () (Array Int (Array Int Int)))
(declare-fun |old(#valid)_-2| () (Array Int Int))
(declare-fun |old(~#a~0.base)_-2| () Int)
(declare-fun |old(#length)_-2| () (Array Int Int))
(declare-fun |old(~#a~0.offset)_-2| () Int)
(declare-fun |old(#memory_$Pointer$#1.offset)_-2| () (Array Int (Array Int Int)))
(declare-fun |old(#memory_int#1)_-2| () (Array Int (Array Int Int)))
(declare-fun |old(#memory_$Pointer$#1.base)_-2| () (Array Int (Array Int Int)))
(declare-fun |old(#memory_$Pointer$#0.offset)_-1| () (Array Int (Array Int Int)))
(declare-fun |old(~i~0)_-1| () Int)
(declare-fun |old(#memory_$Pointer$#0.base)_-1| () (Array Int (Array Int Int)))
(declare-fun |old(~#a~0.base)_-1| () Int)
(declare-fun |old(~#a~0.offset)_-1| () Int)
(declare-fun |old(#memory_$Pointer$#1.offset)_-1| () (Array Int (Array Int Int)))
(declare-fun |old(#memory_$Pointer$#1.base)_-1| () (Array Int (Array Int Int)))
(declare-fun |#memory_$Pointer$#0.offset_-1| () (Array Int (Array Int Int)))
(declare-fun ~i~0_-1 () Int)
(declare-fun |#memory_$Pointer$#0.base_-1| () (Array Int (Array Int Int)))
(declare-fun |~#a~0.base_-1| () Int)
(declare-fun |~#a~0.offset_-1| () Int)
(declare-fun |#memory_$Pointer$#1.offset_-1| () (Array Int (Array Int Int)))
(declare-fun |#memory_$Pointer$#1.base_-1| () (Array Int (Array Int Int)))
(declare-fun |#StackHeapBarrier_-1| () Int)
(declare-fun ~i~0_0 () Int)
(declare-fun |~#a~0.base_0| () Int)
(declare-fun |~#a~0.offset_0| () Int)
(declare-fun |#memory_$Pointer$#1.offset_0| () (Array Int (Array Int Int)))
(declare-fun |#memory_$Pointer$#1.base_0| () (Array Int (Array Int Int)))
(declare-fun v_ArrVal_7_fresh_1 () (Array Int Int))
(declare-fun v_ArrVal_8_fresh_1 () (Array Int Int))
(assert (! (and (= ~i~0_-1 |old(~i~0)_-1|) (= |old(~#a~0.offset)_-1| |~#a~0.offset_-1|) (= |#memory_$Pointer$#0.base_-1| |old(#memory_$Pointer$#0.base)_-1|) (= |old(~#a~0.base)_-1| |~#a~0.base_-1|) (= |old(#memory_$Pointer$#1.base)_-1| |#memory_$Pointer$#1.base_-1|) (= |old(#memory_$Pointer$#0.offset)_-1| |#memory_$Pointer$#0.offset_-1|) (= |old(#memory_$Pointer$#1.offset)_-1| |#memory_$Pointer$#1.offset_-1|)) :named ssa_precond))
(assert (! (not true) :named ssa_postcond))
(assert (! (and (= ((as const (Array Int Int)) 0) v_ArrVal_7_fresh_1) (= (store |#memory_$Pointer$#1.base_-1| |~#a~0.base_0| v_ArrVal_8_fresh_1) |#memory_$Pointer$#1.base_0|) (< 0 |#StackHeapBarrier_-1|) (= (select |#valid_-2| 0) 0) (= (select |#valid_-2| 2) 1) (= |~#a~0.offset_0| 0) (= 23 (select |#length_-2| 2)) (= 4000000 (select |#length_-2| 3)) (= (select |#valid_-2| 3) 1) (= |~#a~0.base_0| 3) (= |#memory_$Pointer$#1.offset_0| (store |#memory_$Pointer$#1.offset_-1| |~#a~0.base_0| v_ArrVal_7_fresh_1)) (= ((as const (Array Int Int)) 0) v_ArrVal_8_fresh_1) (= (select |#valid_-2| 1) 1) (= ~i~0_0 0) (= (select (select |#memory_int#0_-2| 1) 1) 0) (= 2 (select |#length_-2| 1)) (= (select (select |#memory_int#0_-2| 1) 0) 48)) :named ssa_0))
(assert (! true :named ssa_1_return))
(assert (! true :named ssa_-2_PendingContext))
(assert (! true :named ssa_-2_LocVarAssignPendingContext))
(assert (! (and (= |old(#memory_$Pointer$#1.base)_-1| |#memory_$Pointer$#1.base_-2|) (= |old(~#a~0.base)_-1| |~#a~0.base_-2|) (= |#memory_$Pointer$#0.offset_-2| |old(#memory_$Pointer$#0.offset)_-1|) (= ~i~0_-2 |old(~i~0)_-1|) (= |old(#memory_$Pointer$#1.offset)_-1| |#memory_$Pointer$#1.offset_-2|) (= |old(#memory_$Pointer$#0.base)_-1| |#memory_$Pointer$#0.base_-2|) (= |~#a~0.offset_-2| |old(~#a~0.offset)_-1|)) :named ssa_-2_OldVarAssignPendingContext))
(check-sat)
(get-interpolants (and ssa_0 ssa_precond) (and ssa_-2_PendingContext ssa_-2_LocVarAssignPendingContext ssa_-2_OldVarAssignPendingContext ssa_1_return ssa_postcond))
(echo "finished trace check")
(pop 1)
(exit)
